#Data

param a :
  1 2 3 4 5 6 :=
1 6.32 6.32 3.68 4.04 5.76 5.96
2 6.6 6.6 5.76 5.92 3.68 4.08
3 6.72 6.48 5.92 4.08 4.04 3.64
4 4.36 3.68 6.32 6.32 6.72 6.6;

param c1 := 1 5000 2 2000 3 2000 4 2000 ;

param c2 := 1 1000 2 1000 3 1000 4 1000;

param d1 := 1 500 2 700 3 900 4 800 5 1000 6 600;

param d2 := 1 50 2 90 3 120 4 65 5 120 6 70;

param f1 := 1 5000 2 2200 3 2200 4 2200;

param f2 := 1 1500 2 1500 3 1500 4 1500;
